p edge 220 1100
e 1 25
e 1 44
e 1 84
e 1 139
e 1 165
e 2 72
e 2 155
e 2 171
e 2 193
e 2 205
e 3 43
e 3 64
e 3 123
e 3 145
e 3 151
e 4 94
e 4 123
e 4 189
e 4 196
e 4 209
e 5 39
e 5 68
e 5 82
e 5 86
e 5 91
e 6 2
e 6 33
e 6 70
e 6 164
e 6 183
e 7 49
e 7 49
e 7 57
e 7 102
e 7 141
e 8 108
e 8 110
e 8 133
e 8 173
e 8 182
e 9 51
e 9 59
e 9 138
e 9 188
e 9 209
e 10 25
e 10 62
e 10 110
e 10 125
e 10 187
e 11 84
e 11 111
e 11 136
e 11 179
e 11 206
e 12 8
e 12 43
e 12 72
e 12 89
e 12 147
e 13 26
e 13 81
e 13 109
e 13 147
e 13 170
e 14 73
e 14 83
e 14 103
e 14 131
e 14 145
e 15 3
e 15 152
e 15 164
e 15 191
e 15 214
e 16 35
e 16 58
e 16 65
e 16 71
e 16 98
e 17 48
e 17 85
e 17 109
e 17 124
e 17 134
e 18 26
e 18 166
e 18 175
e 18 203
e 18 205
e 19 38
e 19 42
e 19 118
e 19 124
e 19 161
e 20 61
e 20 130
e 20 192
e 20 203
e 20 204
e 21 12
e 21 78
e 21 101
e 21 162
e 21 216
e 22 64
e 22 114
e 22 140
e 22 173
e 22 197
e 23 84
e 23 98
e 23 100
e 23 105
e 23 195
e 24 73
e 24 74
e 24 120
e 24 134
e 24 191
e 25 36
e 25 133
e 25 139
e 25 151
e 25 160
e 26 58
e 26 105
e 26 158
e 26 180
e 26 210
e 27 1
e 27 31
e 27 36
e 27 75
e 27 161
e 28 62
e 28 93
e 28 135
e 28 166
e 28 185
e 29 15
e 29 73
e 29 103
e 29 119
e 29 161
e 30 22
e 30 95
e 30 119
e 30 154
e 30 217
e 31 37
e 31 109
e 31 123
e 31 126
e 31 142
e 32 8
e 32 26
e 32 40
e 32 65
e 32 190
e 33 61
e 33 80
e 33 100
e 33 102
e 33 203
e 34 76
e 34 94
e 34 176
e 34 192
e 34 204
e 35 94
e 35 99
e 35 150
e 35 154
e 35 182
e 36 46
e 36 87
e 36 160
e 36 191
e 36 216
e 37 5
e 37 10
e 37 129
e 37 177
e 37 210
e 38 27
e 38 57
e 38 84
e 38 88
e 38 215
e 39 104
e 39 142
e 39 179
e 39 180
e 39 181
e 40 43
e 40 129
e 40 136
e 40 150
e 40 193
e 41 58
e 41 100
e 41 111
e 41 142
e 41 183
e 42 19
e 42 86
e 42 133
e 42 198
e 42 204
e 43 9
e 43 49
e 43 95
e 43 178
e 43 215
e 44 37
e 44 152
e 44 172
e 44 186
e 44 210
e 45 43
e 45 60
e 45 175
e 45 176
e 45 202
e 46 112
e 46 116
e 46 136
e 46 191
e 46 197
e 47 4
e 47 6
e 47 12
e 47 54
e 47 142
e 48 54
e 48 68
e 48 85
e 48 128
e 48 202
e 49 34
e 49 47
e 49 92
e 49 133
e 49 185
e 50 7
e 50 15
e 50 29
e 50 62
e 50 83
e 51 41
e 51 97
e 51 132
e 51 175
e 51 218
e 52 15
e 52 28
e 52 143
e 52 159
e 52 190
e 53 15
e 53 19
e 53 45
e 53 104
e 53 207
e 54 3
e 54 12
e 54 58
e 54 66
e 54 92
e 55 8
e 55 23
e 55 76
e 55 149
e 55 213
e 56 17
e 56 57
e 56 67
e 56 77
e 56 124
e 57 101
e 57 148
e 57 154
e 57 183
e 57 188
e 58 90
e 58 98
e 58 100
e 58 144
e 58 202
e 59 11
e 59 45
e 59 73
e 59 126
e 59 187
e 60 29
e 60 55
e 60 103
e 60 153
e 60 175
e 61 2
e 61 66
e 61 75
e 61 132
e 61 168
e 62 29
e 62 32
e 62 171
e 62 204
e 62 211
e 63 22
e 63 26
e 63 36
e 63 60
e 63 83
e 64 18
e 64 35
e 64 115
e 64 162
e 64 217
e 65 28
e 65 82
e 65 140
e 65 172
e 65 216
e 66 11
e 66 40
e 66 127
e 66 170
e 66 199
e 67 15
e 67 75
e 67 99
e 67 160
e 67 209
e 68 42
e 68 127
e 68 190
e 68 196
e 68 202
e 69 44
e 69 119
e 69 142
e 69 195
e 69 197
e 70 24
e 70 72
e 70 102
e 70 159
e 70 201
e 71 39
e 71 42
e 71 63
e 71 73
e 71 94
e 72 2
e 72 2
e 72 13
e 72 157
e 72 208
e 73 22
e 73 138
e 73 141
e 73 184
e 73 217
e 74 1
e 74 22
e 74 36
e 74 97
e 74 196
e 75 66
e 75 124
e 75 134
e 75 141
e 75 188
e 76 9
e 76 48
e 76 93
e 76 176
e 76 181
e 77 68
e 77 75
e 77 82
e 77 105
e 77 146
e 78 42
e 78 71
e 78 86
e 78 108
e 78 156
e 79 80
e 79 114
e 79 121
e 79 126
e 79 201
e 80 47
e 80 54
e 80 131
e 80 168
e 80 183
e 81 39
e 81 50
e 81 85
e 81 120
e 81 141
e 82 4
e 82 15
e 82 17
e 82 17
e 82 85
e 83 24
e 83 137
e 83 138
e 83 157
e 83 204
e 84 6
e 84 11
e 84 92
e 84 104
e 84 145
e 85 10
e 85 30
e 85 43
e 85 81
e 85 98
e 86 118
e 86 122
e 86 128
e 86 144
e 86 206
e 87 120
e 87 139
e 87 167
e 87 170
e 87 214
e 88 3
e 88 52
e 88 113
e 88 149
e 88 200
e 89 1
e 89 6
e 89 13
e 89 29
e 89 33
e 90 15
e 90 117
e 90 118
e 90 201
e 90 202
e 91 34
e 91 94
e 91 112
e 91 152
e 91 193
e 92 57
e 92 104
e 92 131
e 92 155
e 92 158
e 93 12
e 93 28
e 93 72
e 93 116
e 93 173
e 94 17
e 94 82
e 94 115
e 94 121
e 94 189
e 95 40
e 95 71
e 95 73
e 95 81
e 95 168
e 96 29
e 96 41
e 96 57
e 96 95
e 96 152
e 97 30
e 97 57
e 97 70
e 97 117
e 97 191
e 98 3
e 98 78
e 98 86
e 98 87
e 98 187
e 99 51
e 99 112
e 99 131
e 99 152
e 99 208
e 100 113
e 100 128
e 100 142
e 100 215
e 100 217
e 101 8
e 101 42
e 101 82
e 101 210
e 101 213
e 102 21
e 102 56
e 102 104
e 102 114
e 102 184
e 103 36
e 103 108
e 103 121
e 103 144
e 103 149
e 104 7
e 104 24
e 104 55
e 104 173
e 104 189
e 105 14
e 105 29
e 105 80
e 105 84
e 105 190
e 106 87
e 106 94
e 106 100
e 106 147
e 106 156
e 107 7
e 107 76
e 107 137
e 107 188
e 107 211
e 108 110
e 108 127
e 108 137
e 108 148
e 108 184
e 109 73
e 109 99
e 109 118
e 109 123
e 109 141
e 110 13
e 110 75
e 110 93
e 110 195
e 110 202
e 111 64
e 111 123
e 111 125
e 111 167
e 111 200
e 112 2
e 112 4
e 112 83
e 112 92
e 112 118
e 113 29
e 113 134
e 113 140
e 113 149
e 113 213
e 114 7
e 114 60
e 114 82
e 114 167
e 114 190
e 115 50
e 115 118
e 115 173
e 115 201
e 115 202
e 116 7
e 116 10
e 116 33
e 116 96
e 116 105
e 117 37
e 117 72
e 117 154
e 117 160
e 117 218
e 118 5
e 118 18
e 118 75
e 118 166
e 118 199
e 119 101
e 119 138
e 119 145
e 119 148
e 119 204
e 120 35
e 120 117
e 120 124
e 120 163
e 120 187
e 121 38
e 121 38
e 121 100
e 121 191
e 121 197
e 122 51
e 122 75
e 122 102
e 122 163
e 122 182
e 123 28
e 123 61
e 123 183
e 123 212
e 123 212
e 124 28
e 124 58
e 124 84
e 124 150
e 124 207
e 125 59
e 125 67
e 125 181
e 125 186
e 125 203
e 126 37
e 126 69
e 126 89
e 126 202
e 126 209
e 127 25
e 127 58
e 127 77
e 127 130
e 127 193
e 128 4
e 128 56
e 128 89
e 128 126
e 128 188
e 129 26
e 129 71
e 129 73
e 129 87
e 129 217
e 130 8
e 130 29
e 130 30
e 130 103
e 130 191
e 131 20
e 131 21
e 131 28
e 131 101
e 131 114
e 132 8
e 132 15
e 132 48
e 132 66
e 132 170
e 133 5
e 133 65
e 133 106
e 133 193
e 133 200
e 134 41
e 134 72
e 134 121
e 134 178
e 134 199
e 135 13
e 135 43
e 135 70
e 135 108
e 135 134
e 136 14
e 136 33
e 136 122
e 136 168
e 136 181
e 137 32
e 137 53
e 137 147
e 137 154
e 137 186
e 138 49
e 138 56
e 138 61
e 138 165
e 138 214
e 139 61
e 139 82
e 139 84
e 139 184
e 139 197
e 140 1
e 140 27
e 140 42
e 140 98
e 140 102
e 141 16
e 141 73
e 141 74
e 141 173
e 141 217
e 142 14
e 142 31
e 142 46
e 142 63
e 142 195
e 143 56
e 143 96
e 143 175
e 143 179
e 143 211
e 144 75
e 144 136
e 144 155
e 144 197
e 144 217
e 145 45
e 145 120
e 145 135
e 145 161
e 145 167
e 146 20
e 146 51
e 146 141
e 146 159
e 146 216
e 147 13
e 147 79
e 147 108
e 147 117
e 147 122
e 148 13
e 148 60
e 148 111
e 148 141
e 148 158
e 149 9
e 149 115
e 149 119
e 149 146
e 149 204
e 150 1
e 150 114
e 150 145
e 150 192
e 150 217
e 151 47
e 151 68
e 151 169
e 151 173
e 151 205
e 152 39
e 152 107
e 152 139
e 152 176
e 152 203
e 153 20
e 153 81
e 153 83
e 153 116
e 153 220
e 154 4
e 154 43
e 154 54
e 154 117
e 154 191
e 155 93
e 155 120
e 155 165
e 155 203
e 155 210
e 156 14
e 156 32
e 156 83
e 156 91
e 156 215
e 157 3
e 157 62
e 157 71
e 157 146
e 157 211
e 158 99
e 158 175
e 158 175
e 158 203
e 158 219
e 159 122
e 159 123
e 159 130
e 159 157
e 159 175
e 160 10
e 160 18
e 160 57
e 160 78
e 160 92
e 161 37
e 161 100
e 161 109
e 161 168
e 161 174
e 162 7
e 162 85
e 162 115
e 162 161
e 162 210
e 163 136
e 163 150
e 163 177
e 163 186
e 163 190
e 164 3
e 164 38
e 164 55
e 164 61
e 164 181
e 165 4
e 165 5
e 165 40
e 165 54
e 165 199
e 166 109
e 166 115
e 166 138
e 166 161
e 166 214
e 167 19
e 167 49
e 167 51
e 167 58
e 167 191
e 168 36
e 168 62
e 168 115
e 168 208
e 168 220
e 169 10
e 169 41
e 169 146
e 169 195
e 169 208
e 170 77
e 170 116
e 170 148
e 170 186
e 170 210
e 171 156
e 171 174
e 171 183
e 171 186
e 171 189
e 172 7
e 172 122
e 172 148
e 172 201
e 172 203
e 173 46
e 173 125
e 173 141
e 173 192
e 173 216
e 174 12
e 174 20
e 174 165
e 174 187
e 174 195
e 175 17
e 175 18
e 175 45
e 175 77
e 175 159
e 176 38
e 176 48
e 176 123
e 176 169
e 176 205
e 177 25
e 177 57
e 177 98
e 177 111
e 177 173
e 178 6
e 178 23
e 178 29
e 178 120
e 178 215
e 179 17
e 179 37
e 179 110
e 179 150
e 179 217
e 180 31
e 180 133
e 180 139
e 180 156
e 180 169
e 181 22
e 181 40
e 181 104
e 181 169
e 181 195
e 182 46
e 182 79
e 182 123
e 182 157
e 182 208
e 183 34
e 183 106
e 183 111
e 183 132
e 183 204
e 184 14
e 184 21
e 184 22
e 184 152
e 184 197
e 185 69
e 185 70
e 185 113
e 185 132
e 185 149
e 186 24
e 186 65
e 186 110
e 186 150
e 186 188
e 187 33
e 187 39
e 187 126
e 187 205
e 187 212
e 188 23
e 188 29
e 188 55
e 188 190
e 188 202
e 189 74
e 189 74
e 189 76
e 189 155
e 189 198
e 190 11
e 190 23
e 190 128
e 190 191
e 190 219
e 191 20
e 191 48
e 191 110
e 191 157
e 191 158
e 192 69
e 192 86
e 192 132
e 192 148
e 192 170
e 193 15
e 193 132
e 193 171
e 193 171
e 193 195
e 194 26
e 194 39
e 194 56
e 194 99
e 194 213
e 195 15
e 195 69
e 195 72
e 195 97
e 195 151
e 196 52
e 196 98
e 196 139
e 196 166
e 196 205
e 197 7
e 197 85
e 197 125
e 197 144
e 197 185
e 198 50
e 198 154
e 198 155
e 198 163
e 198 181
e 199 21
e 199 91
e 199 133
e 199 159
e 199 201
e 200 44
e 200 59
e 200 143
e 200 176
e 200 192
e 201 49
e 201 122
e 201 157
e 201 175
e 201 177
e 202 19
e 202 22
e 202 54
e 202 153
e 202 220
e 203 64
e 203 69
e 203 94
e 203 116
e 203 158
e 204 8
e 204 69
e 204 98
e 204 104
e 204 172
e 205 75
e 205 85
e 205 136
e 205 152
e 205 216
e 206 3
e 206 25
e 206 45
e 206 194
e 206 218
e 207 90
e 207 129
e 207 130
e 207 203
e 207 217
e 208 60
e 208 71
e 208 106
e 208 125
e 208 212
e 209 45
e 209 69
e 209 116
e 209 119
e 209 168
e 210 9
e 210 45
e 210 77
e 210 82
e 210 91
e 211 28
e 211 45
e 211 48
e 211 142
e 211 192
e 212 36
e 212 76
e 212 133
e 212 177
e 212 187
e 213 86
e 213 143
e 213 145
e 213 172
e 213 203
e 214 52
e 214 130
e 214 132
e 214 170
e 214 216
e 215 79
e 215 98
e 215 189
e 215 194
e 215 219
e 216 7
e 216 70
e 216 142
e 216 168
e 216 218
e 217 66
e 217 90
e 217 96
e 217 103
e 217 115
e 218 67
e 218 88
e 218 91
e 218 132
e 218 179
e 219 83
e 219 83
e 219 116
e 219 140
e 219 214
e 220 12
e 220 33
e 220 90
e 220 96
e 220 201
